(set-info :smt-lib-version 2.6)
(set-logic UFNIRA)
(set-info :source |
Generated by: Geoff Sutcliffe
Generated on: 2026-03-11
Generator: TPTPWorld
Application: Benchmarking automated theorem provers
Time limit: 120.0

These benchmarks are translations from the TPTP Library (Thousands of
Problems for Theorem Provers), see http://www.cs.miami.edu/~tptp/

The TPTP is maintained by Geoff Sutcliffe, and he contributed this
selection of benchmarks to SMT-LIB.  They were exported from the
v9.2.1 realease of TPTP.
|)
(set-info :category "industrial")
(set-info :status "unknown")
; SZS status Success
(declare-sort $$unsorted 0)
(declare-fun tptp.lk (Int) Int)
(declare-fun tptp.ns (Int) Int)
(declare-fun tptp.dc (Real Int Int) Real)
(declare-fun tptp.imp (Real Int Int) Real)
(declare-fun tptp.recexp (Real Int Int) Real)
(declare-fun tptp.mysumr (Real Int Int Int) Real)
(declare-fun tptp.mysump (Real Int Int Int) Real)
(assert (not (forall ((S Real)) (=> (and (<= 8000.0 (tptp.recexp S 8000 4)) (<= (/ 9 10) S) (<= S 10.0)) (<= S 1.0)))))
(assert (= (tptp.lk 0) 1))
(assert (= (tptp.lk 1) 9))
(assert (= (tptp.lk 2) 40))
(assert (= (tptp.lk 3) 50))
(assert (= (tptp.lk 4) 100))
(assert (= (tptp.lk 5) 400))
(assert (= (tptp.lk 6) 600))
(assert (= (tptp.ns 0) 10))
(assert (= (tptp.ns 1) 50))
(assert (= (tptp.ns 2) 99))
(assert (= (tptp.ns 3) 190))
(assert (= (tptp.ns 4) 550))
(assert (= (tptp.ns 5) 1100))
(assert (= (tptp.ns 6) 1600))
(assert (forall ((D Real) (T Int) (C Int)) (let ((_let_1 (tptp.ns C))) (= (* (tptp.dc D T C) (to_real (- T _let_1))) (- (to_real T) (* D (to_real _let_1)))))))
(assert (forall ((D Real) (T Int)) (= (tptp.imp D T 0) 0.0)))
(assert (forall ((D Real) (T Int) (C Int)) (=> (<= 1 C) (= (* (to_real T) (tptp.imp D T C)) (+ (* D (to_real (tptp.lk (- C 1)))) (tptp.mysump D T C (- C 2)))))))
(assert (forall ((D Real) (T Int) (C Int)) (= (tptp.mysump D T C 0) 0.0)))
(assert (forall ((D Real) (T Int) (C Int) (K Int)) (=> (<= 1 K) (= (tptp.mysump D T C K) (+ (* (tptp.dc D T C) (to_real (tptp.lk K))) (tptp.mysump D T C (- K 1)))))))
(assert (forall ((D Real) (T Int)) (= (tptp.recexp D T 0) 0.0)))
(assert (forall ((D Real) (T Int) (C Int)) (let ((_let_1 (- C 1))) (let ((_let_2 (to_real T))) (=> (<= 1 C) (= (* (tptp.imp D T C) (* _let_2 (tptp.recexp D T C))) (+ (+ _let_2 (* (* D (tptp.recexp D T _let_1)) (to_real (tptp.lk _let_1)))) (tptp.mysumr D T C (- C 2)))))))))
(assert (forall ((D Real) (T Int) (C Int)) (= (tptp.mysumr D T C 0) 0.0)))
(assert (forall ((D Real) (T Int) (C Int) (K Int)) (=> (<= 1 K) (= (tptp.mysumr D T C K) (+ (* (tptp.dc D T C) (* (tptp.recexp D T K) (to_real (tptp.lk K)))) (tptp.mysumr D C T (- K 1)))))))
(check-sat)
(exit)
